; benchmark generated from python API
(set-info :status unknown)
(declare-fun x5 () Real)
(declare-fun x3 () Real)
(declare-fun bool.b14 () Bool)
(declare-fun bool.b5 () Bool)
(declare-fun bool.b10 () Bool)
(declare-fun bool.b8 () Bool)
(declare-fun bool.b12 () Bool)
(declare-fun bool.b23 () Bool)
(declare-fun bool.b7 () Bool)
(declare-fun x4 () Real)
(declare-fun bool.b6 () Bool)
(declare-fun bool.b22 () Bool)
(assert
 (forall ((?lambda Real) )(let ((?x4064 (- 10.0)))
 (let ((?x26295 (- 1.0)))
 (let ((?x7165 (* ?x26295 (+ x5 (* 1.0 ?lambda)))))
 (let (($x15927 (and (and (not bool.b8) (not bool.b10)) (and (not bool.b5) (not bool.b14)))))
 (let (($x15194 (not bool.b12)))
 (let (($x19874 (not (and (not bool.b5) bool.b23))))
 (let (($x31856 (and (not (and $x19874 (not (and $x15194 $x15927)))) (<= (+ (* 1.0 (+ x3 (* (/ 1.0 2.0) ?lambda))) ?x7165) ?x4064))))
 (let (($x39428 (and (not (<= (* 1.0 (+ x4 (* 20.0 ?lambda))) 4820.0)) (and bool.b7 $x31856))))
 (let (($x961 (not (and (not bool.b6) (not (and bool.b5 (not bool.b7)))))))
 (let (($x850 (not bool.b22)))
 (let (($x19333 (exists ((?lambdaprime Real) )(! (let (($x850 (not bool.b22)))
 (let (($x6680 (not (<= (* (- 1.0) (+ x3 (* (/ 1.0 2.0) ?lambdaprime))) (- 20.0)))))
 (let (($x14558 (and $x6680 (not (<= (* (- 1.0) (+ x4 (* 20.0 ?lambdaprime))) (- 4910.0))))))
 (let (($x33926 (and (not $x14558) (and $x850 (and (not bool.b7) (and (not bool.b5) bool.b6))))))
 (let (($x9941 (and $x6680 (not (<= (* (- 1.0) (+ x4 (* 20.0 ?lambdaprime))) (- 4500.0))))))
 (let (($x8563 (and (not $x9941) (and $x850 (and bool.b7 (and (not bool.b5) (not bool.b6)))))))
 (let (($x18265 (and $x6680 (not (<= (* (- 1.0) (+ x4 (* 20.0 ?lambdaprime))) (- 4100.0))))))
 (let (($x1617 (and (not $x18265) (and $x850 (and (not bool.b7) (and (not bool.b5) (not bool.b6)))))))
 (let (($x32107 (and (not (<= (* (- 1.0) (+ x5 (* 1.0 ?lambdaprime))) (- 10.0))) (and (and (not $x1617) (not $x8563)) (not $x33926)))))
 (and (and (<= 0.0 ?lambdaprime) (<= ?lambdaprime ?lambda)) (not $x32107))))))))))) :qid k!27))
 ))
 (or (or $x19333 (< ?lambda 0.0)) (not (and $x850 (and $x961 (not (and bool.b6 (not $x39428)))))))))))))))))))
 )
(check-sat)
